c generated by sgen3tocnf
c nLits = 621
c actual nVars = 207
c Command: sgen3tocnf 70 33 0 0 210 3 1 0 /dev/null
p cnf 210 277
-58 -199 0
-58 -181 0
-199 -181 0
-202 -61 0
-202 -124 0
-61 -124 0
-205 -154 0
-205 -34 0
-154 -34 0
-142 -88 0
-142 -4 0
-88 -4 0
-76 -112 0
-76 -1 0
-112 -1 0
-169 -25 0
-169 -70 0
-25 -70 0
-166 -77 0
-166 -206 0
-77 -206 0
-31 -139 0
-31 -28 0
-139 -28 0
-187 -5 0
-187 -208 0
-5 -208 0
-13 -46 0
-13 -40 0
-46 -40 0
-109 -184 0
-109 -170 0
-184 -170 0
-100 -71 0
-100 -91 0
-71 -91 0
-55 -145 0
-55 -130 0
-145 -130 0
-47 -92 0
-47 -49 0
-92 -49 0
-6 -10 0
-6 -16 0
-10 -16 0
-163 -127 0
-163 -26 0
-127 -26 0
-131 -203 0
-131 -190 0
-203 -190 0
-133 -151 0
-133 -37 0
-151 -37 0
-11 -59 0
-11 -79 0
-59 -79 0
-152 -143 0
-152 -115 0
-143 -115 0
-136 -118 0
-136 -167 0
-118 -167 0
-193 -67 0
-193 -146 0
-67 -146 0
-172 -35 0
-172 -52 0
-35 -52 0
-85 -43 0
-85 -200 0
-43 -200 0
-68 -7 0
-68 -128 0
-7 -128 0
-41 -175 0
-41 -110 0
-175 -110 0
-106 -168 0
-106 -155 0
-168 -155 0
-94 -82 0
-94 -157 0
-82 -157 0
-2 -107 0
-2 -173 0
-107 -173 0
-17 -196 0
-17 -60 0
-196 -60 0
-185 -53 0
-185 -19 0
-53 -19 0
-97 -14 0
-97 -95 0
-14 -95 0
-129 -20 0
-129 -89 0
-20 -89 0
-72 -182 0
-72 -98 0
-182 -98 0
-103 -132 0
-103 -178 0
-132 -178 0
-201 -96 0
-201 -48 0
-96 -48 0
-156 -111 0
-156 -204 0
-111 -204 0
-27 -207 0
-27 -153 0
-207 -153 0
-160 -29 0
-160 -164 0
-29 -164 0
-64 -165 0
-64 -73 0
-165 -73 0
-119 -42 0
-119 -65 0
-42 -65 0
-198 -209 0
-198 -104 0
-209 -104 0
-93 -38 0
-93 -137 0
-38 -137 0
-62 -66 0
-62 -108 0
-66 -108 0
-74 -134 0
-74 -86 0
-134 -86 0
-21 -75 0
-21 -22 0
-75 -22 0
-148 -80 0
-148 -15 0
-80 -15 0
-54 -87 0
-54 -120 0
-87 -120 0
-113 -159 0
-113 -12 0
-159 -12 0
-210 -121 0
-210 -56 0
-121 -56 0
-147 -149 0
-147 -8 0
-149 -8 0
-140 -179 0
-140 -186 0
-179 -186 0
-183 -174 0
-183 -122 0
-174 -122 0
-180 -3 0
-180 -188 0
-3 -188 0
-36 -191 0
-36 -194 0
-191 -194 0
-192 -50 0
-192 -135 0
-50 -135 0
-44 -99 0
-44 -69 0
-99 -69 0
-117 -161 0
-117 -63 0
-161 -63 0
-23 -125 0
-23 -101 0
-125 -101 0
-51 -138 0
-51 -150 0
-138 -150 0
-126 -57 0
-126 -176 0
-57 -176 0
-30 -24 0
-30 -83 0
-24 -83 0
-90 -105 0
-90 -78 0
-105 -78 0
-84 -195 0
-84 -144 0
-195 -144 0
-39 -102 0
-39 -114 0
-102 -114 0
-123 -18 0
-123 -141 0
-18 -141 0
-81 -32 0
-81 -162 0
-32 -162 0
-9 -189 0
-9 -45 0
-189 -45 0
-177 -171 0
-177 -33 0
-171 -33 0
2 3 1 0
6 5 4 0
9 7 8 0
11 10 12 0
13 14 15 0
17 18 16 0
21 20 19 0
23 24 22 0
27 25 26 0
30 29 28 0
31 32 33 0
36 35 34 0
39 38 37 0
41 42 40 0
44 43 45 0
47 46 48 0
51 50 49 0
54 53 52 0
55 57 56 0
58 59 60 0
62 61 63 0
64 66 65 0
68 67 69 0
72 71 70 0
74 75 73 0
76 77 78 0
81 80 79 0
84 82 83 0
85 87 86 0
90 88 89 0
93 92 91 0
94 96 95 0
97 99 98 0
100 102 101 0
103 105 104 0
106 107 108 0
109 111 110 0
113 112 114 0
117 115 0
119 118 120 0
123 121 122 0
126 125 124 0
129 127 128 0
131 132 130 0
133 134 135 0
136 138 137 0
140 139 141 0
142 143 144 0
147 145 146 0
148 149 150 0
152 151 153 0
156 154 155 0
159 157 0
160 161 162 0
163 165 164 0
166 168 167 0
169 171 170 0
172 174 173 0
177 175 176 0
180 179 178 0
183 182 181 0
185 184 186 0
187 189 188 0
192 191 190 0
193 195 194 0
198 196 0
201 199 200 0
202 203 204 0
205 207 206 0
210 209 208 0
